\ This file has been generated by DOcplex
\ ENCODING=ISO-8859-1
\Problem name: CPLEX

Minimize
 obj: b1 + 2 i1 + [ 2 x^2 + 4 y^2 ]/2 + 3
Subject To
 lin_eq: b1 + 2 i1 = 11
 lin_leq: x + 2 y <= 30
 lin_leq2: i1 + 2 x >= 10
 lin_leq3: b1 + 2 y >= 3
 quad_leq: [ x^2 + y^2 ] + b1 + i1 <= 180

Bounds
 0 <= b1 <= 1

Binaries
 b1

Generals
 i1
End
